80 3160
1 2 210
1 3 87
1 4 16
1 5 126
1 6 98
1 7 151
1 8 58
1 9 28
1 10 221
1 11 230
1 12 92
1 13 122
1 14 170
1 15 46
1 16 6
1 17 82
1 18 146
1 19 25
1 20 81
1 21 151
1 22 107
1 23 156
1 24 138
1 25 113
1 26 212
1 27 122
1 28 172
1 29 203
1 30 182
1 31 99
1 32 99
1 33 146
1 34 152
1 35 103
1 36 111
1 37 120
1 38 159
1 39 193
1 40 106
1 41 155
1 42 52
1 43 235
1 44 111
1 45 216
1 46 116
1 47 58
1 48 177
1 49 1
1 50 97
1 51 177
1 52 169
1 53 185
1 54 174
1 55 76
1 56 140
1 57 198
1 58 24
1 59 119
1 60 6
1 61 217
1 62 160
1 63 217
1 64 122
1 65 215
1 66 205
1 67 11
1 68 193
1 69 6
1 70 112
1 71 115
1 72 104
1 73 163
1 74 138
1 75 156
1 76 26
1 77 154
1 78 233
1 79 24
1 80 120
2 3 51
2 4 51
2 5 168
2 6 29
2 7 133
2 8 198
2 9 93
2 10 9
2 11 132
2 12 197
2 13 120
2 14 52
2 15 42
2 16 107
2 17 184
2 18 178
2 19 186
2 20 16
2 21 90
2 22 227
2 23 94
2 24 1
2 25 181
2 26 75
2 27 211
2 28 124
2 29 107
2 30 146
2 31 219
2 32 158
2 33 5
2 34 60
2 35 150
2 36 6
2 37 189
2 38 148
2 39 111
2 40 214
2 41 78
2 42 27
2 43 98
2 44 213
2 45 172
2 46 155
2 47 34
2 48 78
2 49 123
2 50 158
2 51 159
2 52 122
2 53 101
2 54 39
2 55 125
2 56 4
2 57 6
2 58 135
2 59 31
2 60 38
2 61 104
2 62 44
2 63 215
2 64 3
2 65 57
2 66 146
2 67 160
2 68 166
2 69 225
2 70 38
2 71 134
2 72 167
2 73 236
2 74 128
2 75 187
2 76 203
2 77 220
2 78 127
2 79 211
2 80 197
3 4 210
3 5 191
3 6 98
3 7 30
3 8 158
3 9 67
3 10 221
3 11 65
3 12 177
3 13 78
3 14 139
3 15 19
3 16 228
3 17 66
3 18 144
3 19 163
3 20 128
3 21 142
3 22 23
3 23 103
3 24 125
3 25 72
3 26 178
3 27 118
3 28 86
3 29 5
3 30 192
3 31 85
3 32 81
3 33 221
3 34 66
3 35 163
3 36 157
3 37 168
3 38 47
3 39 143
3 40 77
3 41 225
3 42 85
3 43 104
3 44 57
3 45 65
3 46 42
3 47 48
3 48 236
3 49 11
3 50 87
3 51 13
3 52 83
3 53 5
3 54 132
3 55 61
3 56 23
3 57 128
3 58 142
3 59 31
3 60 166
3 61 158
3 62 165
3 63 43
3 64 185
3 65 149
3 66 19
3 67 67
3 68 66
3 69 49
3 70 220
3 71 4
3 72 66
3 73 117
3 74 236
3 75 114
3 76 51
3 77 134
3 78 125
3 79 110
3 80 15
4 5 25
4 6 22
4 7 197
4 8 127
4 9 2
4 10 108
4 11 85
4 12 146
4 13 214
4 14 36
4 15 80
4 16 47
4 17 25
4 18 163
4 19 48
4 20 170
4 21 138
4 22 179
4 23 52
4 24 86
4 25 89
4 26 109
4 27 208
4 28 13
4 29 138
4 30 112
4 31 109
4 32 138
4 33 187
4 34 65
4 35 35
4 36 196
4 37 139
4 38 12
4 39 88
4 40 23
4 41 50
4 42 79
4 43 147
4 44 18
4 45 147
4 46 66
4 47 29
4 48 158
4 49 64
4 50 70
4 51 217
4 52 83
4 53 19
4 54 46
4 55 216
4 56 133
4 57 181
4 58 71
4 59 218
4 60 60
4 61 147
4 62 149
4 63 165
4 64 92
4 65 222
4 66 68
4 67 73
4 68 0
4 69 193
4 70 15
4 71 231
4 72 154
4 73 41
4 74 156
4 75 7
4 76 95
4 77 42
4 78 18
4 79 60
4 80 71
5 6 89
5 7 20
5 8 225
5 9 180
5 10 141
5 11 200
5 12 7
5 13 140
5 14 112
5 15 221
5 16 214
5 17 191
5 18 19
5 19 153
5 20 176
5 21 133
5 22 12
5 23 161
5 24 107
5 25 57
5 26 196
5 27 5
5 28 150
5 29 187
5 30 164
5 31 237
5 32 3
5 33 11
5 34 121
5 35 176
5 36 225
5 37 229
5 38 117
5 39 201
5 40 216
5 41 58
5 42 9
5 43 133
5 44 7
5 45 177
5 46 60
5 47 102
5 48 230
5 49 49
5 50 17
5 51 198
5 52 225
5 53 24
5 54 10
5 55 110
5 56 185
5 57 104
5 58 145
5 59 50
5 60 66
5 61 186
5 62 168
5 63 160
5 64 1
5 65 95
5 66 230
5 67 28
5 68 185
5 69 156
5 70 151
5 71 186
5 72 206
5 73 222
5 74 66
5 75 211
5 76 29
5 77 74
5 78 234
5 79 154
5 80 141
6 7 106
6 8 198
6 9 180
6 10 18
6 11 68
6 12 145
6 13 149
6 14 107
6 15 174
6 16 220
6 17 174
6 18 3
6 19 66
6 20 222
6 21 53
6 22 6
6 23 129
6 24 223
6 25 75
6 26 151
6 27 109
6 28 9
6 29 102
6 30 212
6 31 49
6 32 239
6 33 3
6 34 128
6 35 187
6 36 108
6 37 46
6 38 149
6 39 154
6 40 64
6 41 38
6 42 239
6 43 24
6 44 234
6 45 1
6 46 83
6 47 8
6 48 237
6 49 68
6 50 221
6 51 206
6 52 102
6 53 197
6 54 58
6 55 226
6 56 114
6 57 157
6 58 75
6 59 224
6 60 135
6 61 231
6 62 24
6 63 153
6 64 118
6 65 181
6 66 32
6 67 162
6 68 143
6 69 138
6 70 230
6 71 197
6 72 49
6 73 217
6 74 133
6 75 151
6 76 116
6 77 190
6 78 193
6 79 93
6 80 42
7 8 94
7 9 144
7 10 236
7 11 238
7 12 32
7 13 12
7 14 170
7 15 32
7 16 123
7 17 211
7 18 31
7 19 237
7 20 203
7 21 94
7 22 235
7 23 176
7 24 32
7 25 220
7 26 136
7 27 89
7 28 86
7 29 110
7 30 141
7 31 150
7 32 66
7 33 85
7 34 173
7 35 32
7 36 25
7 37 41
7 38 107
7 39 133
7 40 209
7 41 217
7 42 192
7 43 62
7 44 201
7 45 172
7 46 54
7 47 22
7 48 83
7 49 125
7 50 198
7 51 1
7 52 218
7 53 174
7 54 189
7 55 226
7 56 32
7 57 0
7 58 171
7 59 76
7 60 24
7 61 196
7 62 230
7 63 145
7 64 222
7 65 49
7 66 22
7 67 83
7 68 193
7 69 56
7 70 217
7 71 119
7 72 196
7 73 153
7 74 15
7 75 208
7 76 16
7 77 237
7 78 71
7 79 64
7 80 206
8 9 173
8 10 6
8 11 136
8 12 158
8 13 147
8 14 104
8 15 175
8 16 66
8 17 117
8 18 16
8 19 163
8 20 221
8 21 124
8 22 120
8 23 73
8 24 0
8 25 34
8 26 5
8 27 178
8 28 184
8 29 197
8 30 172
8 31 51
8 32 117
8 33 229
8 34 230
8 35 135
8 36 96
8 37 11
8 38 0
8 39 228
8 40 209
8 41 164
8 42 67
8 43 67
8 44 10
8 45 140
8 46 190
8 47 185
8 48 118
8 49 231
8 50 115
8 51 90
8 52 210
8 53 217
8 54 163
8 55 23
8 56 229
8 57 8
8 58 207
8 59 178
8 60 18
8 61 148
8 62 15
8 63 52
8 64 233
8 65 234
8 66 52
8 67 146
8 68 153
8 69 143
8 70 56
8 71 80
8 72 110
8 73 223
8 74 239
8 75 6
8 76 104
8 77 222
8 78 233
8 79 153
8 80 153
9 10 211
9 11 183
9 12 194
9 13 122
9 14 49
9 15 9
9 16 1
9 17 211
9 18 133
9 19 202
9 20 118
9 21 63
9 22 26
9 23 195
9 24 110
9 25 74
9 26 84
9 27 162
9 28 124
9 29 2
9 30 127
9 31 65
9 32 121
9 33 129
9 34 85
9 35 27
9 36 216
9 37 163
9 38 192
9 39 25
9 40 154
9 41 43
9 42 123
9 43 239
9 44 140
9 45 84
9 46 53
9 47 150
9 48 206
9 49 159
9 50 74
9 51 70
9 52 231
9 53 94
9 54 171
9 55 85
9 56 107
9 57 190
9 58 85
9 59 70
9 60 183
9 61 114
9 62 43
9 63 103
9 64 58
9 65 239
9 66 235
9 67 154
9 68 44
9 69 200
9 70 179
9 71 216
9 72 187
9 73 52
9 74 215
9 75 79
9 76 56
9 77 116
9 78 30
9 79 46
9 80 32
10 11 167
10 12 142
10 13 62
10 14 167
10 15 79
10 16 17
10 17 89
10 18 182
10 19 26
10 20 70
10 21 52
10 22 54
10 23 193
10 24 16
10 25 39
10 26 214
10 27 25
10 28 3
10 29 158
10 30 235
10 31 98
10 32 194
10 33 199
10 34 93
10 35 25
10 36 84
10 37 105
10 38 229
10 39 5
10 40 232
10 41 110
10 42 196
10 43 30
10 44 102
10 45 204
10 46 60
10 47 96
10 48 46
10 49 55
10 50 137
10 51 196
10 52 202
10 53 96
10 54 233
10 55 214
10 56 199
10 57 222
10 58 165
10 59 116
10 60 108
10 61 48
10 62 108
10 63 95
10 64 155
10 65 72
10 66 192
10 67 106
10 68 61
10 69 63
10 70 20
10 71 25
10 72 180
10 73 217
10 74 233
10 75 185
10 76 177
10 77 63
10 78 21
10 79 97
10 80 64
11 12 3
11 13 110
11 14 148
11 15 122
11 16 3
11 17 98
11 18 103
11 19 12
11 20 218
11 21 197
11 22 96
11 23 163
11 24 205
11 25 69
11 26 127
11 27 220
11 28 58
11 29 94
11 30 145
11 31 152
11 32 176
11 33 141
11 34 140
11 35 20
11 36 110
11 37 37
11 38 219
11 39 136
11 40 3
11 41 156
11 42 73
11 43 220
11 44 153
11 45 231
11 46 60
11 47 94
11 48 206
11 49 66
11 50 175
11 51 117
11 52 237
11 53 198
11 54 93
11 55 34
11 56 45
11 57 128
11 58 190
11 59 28
11 60 150
11 61 193
11 62 230
11 63 107
11 64 97
11 65 62
11 66 118
11 67 86
11 68 198
11 69 142
11 70 176
11 71 132
11 72 45
11 73 33
11 74 49
11 75 132
11 76 17
11 77 220
11 78 147
11 79 150
11 80 118
12 13 40
12 14 179
12 15 131
12 16 39
12 17 156
12 18 178
12 19 198
12 20 107
12 21 124
12 22 208
12 23 198
12 24 171
12 25 34
12 26 130
12 27 134
12 28 164
12 29 51
12 30 99
12 31 24
12 32 233
12 33 181
12 34 162
12 35 65
12 36 92
12 37 227
12 38 32
12 39 15
12 40 70
12 41 123
12 42 45
12 43 10
12 44 105
12 45 238
12 46 99
12 47 196
12 48 165
12 49 74
12 50 125
12 51 126
12 52 219
12 53 68
12 54 112
12 55 145
12 56 169
12 57 92
12 58 147
12 59 35
12 60 196
12 61 176
12 62 14
12 63 104
12 64 196
12 65 145
12 66 233
12 67 197
12 68 26
12 69 5
12 70 15
12 71 166
12 72 42
12 73 83
12 74 24
12 75 158
12 76 107
12 77 114
12 78 32
12 79 111
12 80 43
13 14 184
13 15 145
13 16 61
13 17 162
13 18 196
13 19 177
13 20 135
13 21 7
13 22 100
13 23 121
13 24 223
13 25 159
13 26 228
13 27 230
13 28 234
13 29 180
13 30 237
13 31 185
13 32 30
13 33 173
13 34 120
13 35 209
13 36 144
13 37 94
13 38 196
13 39 75
13 40 57
13 41 163
13 42 62
13 43 102
13 44 66
13 45 40
13 46 220
13 47 96
13 48 186
13 49 9
13 50 18
13 51 153
13 52 210
13 53 73
13 54 164
13 55 156
13 56 201
13 57 50
13 58 157
13 59 167
13 60 112
13 61 143
13 62 189
13 63 96
13 64 119
13 65 150
13 66 159
13 67 51
13 68 81
13 69 209
13 70 62
13 71 124
13 72 46
13 73 227
13 74 38
13 75 90
13 76 128
13 77 50
13 78 203
13 79 123
13 80 174
14 15 94
14 16 57
14 17 161
14 18 169
14 19 46
14 20 206
14 21 1
14 22 135
14 23 146
14 24 70
14 25 115
14 26 239
14 27 26
14 28 168
14 29 70
14 30 7
14 31 77
14 32 75
14 33 24
14 34 67
14 35 178
14 36 86
14 37 63
14 38 41
14 39 140
14 40 172
14 41 209
14 42 37
14 43 118
14 44 159
14 45 147
14 46 181
14 47 233
14 48 14
14 49 81
14 50 76
14 51 77
14 52 98
14 53 149
14 54 51
14 55 33
14 56 169
14 57 229
14 58 209
14 59 32
14 60 39
14 61 21
14 62 221
14 63 9
14 64 42
14 65 158
14 66 220
14 67 154
14 68 20
14 69 110
14 70 36
14 71 90
14 72 192
14 73 50
14 74 57
14 75 56
14 76 177
14 77 236
14 78 170
14 79 118
14 80 167
15 16 6
15 17 237
15 18 140
15 19 142
15 20 55
15 21 173
15 22 187
15 23 135
15 24 128
15 25 143
15 26 56
15 27 23
15 28 216
15 29 210
15 30 100
15 31 165
15 32 129
15 33 72
15 34 134
15 35 137
15 36 187
15 37 235
15 38 143
15 39 239
15 40 76
15 41 214
15 42 34
15 43 0
15 44 23
15 45 172
15 46 46
15 47 172
15 48 200
15 49 102
15 50 195
15 51 229
15 52 2
15 53 143
15 54 116
15 55 126
15 56 237
15 57 88
15 58 46
15 59 12
15 60 143
15 61 209
15 62 32
15 63 232
15 64 11
15 65 236
15 66 102
15 67 11
15 68 44
15 69 122
15 70 37
15 71 28
15 72 69
15 73 165
15 74 111
15 75 179
15 76 237
15 77 12
15 78 197
15 79 160
15 80 78
16 17 236
16 18 8
16 19 101
16 20 135
16 21 123
16 22 139
16 23 89
16 24 115
16 25 71
16 26 57
16 27 53
16 28 96
16 29 173
16 30 19
16 31 74
16 32 127
16 33 180
16 34 191
16 35 15
16 36 83
16 37 137
16 38 33
16 39 161
16 40 235
16 41 184
16 42 152
16 43 31
16 44 156
16 45 74
16 46 16
16 47 41
16 48 120
16 49 60
16 50 115
16 51 213
16 52 112
16 53 183
16 54 104
16 55 114
16 56 164
16 57 120
16 58 19
16 59 5
16 60 67
16 61 6
16 62 141
16 63 189
16 64 199
16 65 86
16 66 2
16 67 235
16 68 180
16 69 89
16 70 53
16 71 134
16 72 138
16 73 195
16 74 5
16 75 110
16 76 100
16 77 161
16 78 8
16 79 201
16 80 35
17 18 102
17 19 122
17 20 1
17 21 39
17 22 233
17 23 177
17 24 66
17 25 79
17 26 203
17 27 200
17 28 231
17 29 4
17 30 119
17 31 130
17 32 69
17 33 40
17 34 239
17 35 66
17 36 4
17 37 84
17 38 23
17 39 4
17 40 114
17 41 51
17 42 190
17 43 145
17 44 107
17 45 213
17 46 74
17 47 22
17 48 220
17 49 31
17 50 188
17 51 33
17 52 110
17 53 151
17 54 65
17 55 58
17 56 237
17 57 142
17 58 232
17 59 178
17 60 147
17 61 156
17 62 213
17 63 181
17 64 114
17 65 140
17 66 108
17 67 101
17 68 60
17 69 228
17 70 163
17 71 224
17 72 56
17 73 175
17 74 233
17 75 32
17 76 56
17 77 32
17 78 40
17 79 1
17 80 43
18 19 182
18 20 72
18 21 61
18 22 123
18 23 86
18 24 215
18 25 171
18 26 155
18 27 170
18 28 136
18 29 217
18 30 9
18 31 136
18 32 92
18 33 65
18 34 102
18 35 54
18 36 17
18 37 63
18 38 205
18 39 111
18 40 83
18 41 60
18 42 188
18 43 214
18 44 120
18 45 235
18 46 2
18 47 71
18 48 194
18 49 201
18 50 235
18 51 101
18 52 143
18 53 115
18 54 55
18 55 24
18 56 6
18 57 169
18 58 90
18 59 209
18 60 235
18 61 58
18 62 17
18 63 102
18 64 176
18 65 69
18 66 188
18 67 14
18 68 5
18 69 25
18 70 168
18 71 214
18 72 181
18 73 186
18 74 6
18 75 213
18 76 142
18 77 85
18 78 69
18 79 166
18 80 92
19 20 210
19 21 58
19 22 34
19 23 127
19 24 16
19 25 85
19 26 126
19 27 19
19 28 160
19 29 44
19 30 194
19 31 79
19 32 123
19 33 221
19 34 25
19 35 221
19 36 98
19 37 52
19 38 9
19 39 0
19 40 231
19 41 63
19 42 165
19 43 191
19 44 164
19 45 83
19 46 181
19 47 13
19 48 143
19 49 52
19 50 115
19 51 176
19 52 31
19 53 129
19 54 172
19 55 147
19 56 98
19 57 39
19 58 81
19 59 75
19 60 62
19 61 42
19 62 70
19 63 83
19 64 30
19 65 15
19 66 25
19 67 21
19 68 233
19 69 217
19 70 22
19 71 186
19 72 94
19 73 75
19 74 153
19 75 205
19 76 98
19 77 84
19 78 12
19 79 184
19 80 165
20 21 186
20 22 87
20 23 84
20 24 10
20 25 89
20 26 101
20 27 82
20 28 105
20 29 56
20 30 179
20 31 172
20 32 192
20 33 157
20 34 86
20 35 154
20 36 21
20 37 1
20 38 40
20 39 118
20 40 158
20 41 207
20 42 164
20 43 51
20 44 43
20 45 118
20 46 132
20 47 99
20 48 214
20 49 134
20 50 187
20 51 115
20 52 186
20 53 20
20 54 135
20 55 5
20 56 222
20 57 31
20 58 136
20 59 144
20 60 74
20 61 192
20 62 131
20 63 71
20 64 233
20 65 72
20 66 83
20 67 111
20 68 60
20 69 182
20 70 134
20 71 97
20 72 96
20 73 151
20 74 108
20 75 192
20 76 189
20 77 127
20 78 70
20 79 184
20 80 25
21 22 175
21 23 218
21 24 172
21 25 66
21 26 111
21 27 128
21 28 206
21 29 99
21 30 127
21 31 146
21 32 238
21 33 44
21 34 15
21 35 216
21 36 83
21 37 201
21 38 59
21 39 25
21 40 3
21 41 183
21 42 161
21 43 118
21 44 223
21 45 117
21 46 108
21 47 100
21 48 39
21 49 139
21 50 215
21 51 23
21 52 53
21 53 213
21 54 143
21 55 177
21 56 39
21 57 63
21 58 231
21 59 167
21 60 19
21 61 98
21 62 74
21 63 48
21 64 57
21 65 96
21 66 174
21 67 23
21 68 4
21 69 44
21 70 4
21 71 2
21 72 212
21 73 237
21 74 26
21 75 207
21 76 227
21 77 129
21 78 4
21 79 155
21 80 180
22 23 142
22 24 77
22 25 97
22 26 141
22 27 56
22 28 123
22 29 26
22 30 128
22 31 89
22 32 6
22 33 97
22 34 135
22 35 198
22 36 163
22 37 26
22 38 212
22 39 215
22 40 201
22 41 145
22 42 225
22 43 215
22 44 43
22 45 13
22 46 195
22 47 170
22 48 76
22 49 211
22 50 148
22 51 192
22 52 79
22 53 101
22 54 172
22 55 114
22 56 204
22 57 75
22 58 154
22 59 79
22 60 22
22 61 103
22 62 137
22 63 140
22 64 79
22 65 36
22 66 107
22 67 158
22 68 185
22 69 196
22 70 200
22 71 2
22 72 82
22 73 33
22 74 194
22 75 29
22 76 96
22 77 106
22 78 144
22 79 187
22 80 134
23 24 38
23 25 149
23 26 239
23 27 107
23 28 115
23 29 9
23 30 84
23 31 88
23 32 187
23 33 237
23 34 214
23 35 77
23 36 108
23 37 219
23 38 197
23 39 41
23 40 225
23 41 65
23 42 180
23 43 198
23 44 138
23 45 45
23 46 57
23 47 17
23 48 97
23 49 19
23 50 236
23 51 147
23 52 33
23 53 169
23 54 212
23 55 224
23 56 166
23 57 29
23 58 193
23 59 219
23 60 6
23 61 155
23 62 117
23 63 179
23 64 78
23 65 130
23 66 2
23 67 140
23 68 135
23 69 94
23 70 170
23 71 106
23 72 32
23 73 114
23 74 119
23 75 82
23 76 25
23 77 100
23 78 217
23 79 62
23 80 26
24 25 23
24 26 204
24 27 124
24 28 88
24 29 70
24 30 192
24 31 188
24 32 218
24 33 52
24 34 70
24 35 138
24 36 129
24 37 224
24 38 59
24 39 79
24 40 139
24 41 125
24 42 178
24 43 71
24 44 162
24 45 219
24 46 79
24 47 113
24 48 39
24 49 192
24 50 43
24 51 88
24 52 61
24 53 193
24 54 21
24 55 24
24 56 226
24 57 28
24 58 203
24 59 232
24 60 17
24 61 197
24 62 170
24 63 221
24 64 184
24 65 1
24 66 161
24 67 235
24 68 174
24 69 127
24 70 152
24 71 0
24 72 75
24 73 198
24 74 91
24 75 40
24 76 107
24 77 92
24 78 233
24 79 37
24 80 78
25 26 62
25 27 46
25 28 91
25 29 81
25 30 94
25 31 43
25 32 13
25 33 106
25 34 121
25 35 71
25 36 229
25 37 226
25 38 238
25 39 65
25 40 73
25 41 175
25 42 144
25 43 209
25 44 206
25 45 228
25 46 224
25 47 152
25 48 203
25 49 57
25 50 26
25 51 234
25 52 187
25 53 47
25 54 147
25 55 235
25 56 125
25 57 30
25 58 194
25 59 62
25 60 136
25 61 92
25 62 153
25 63 239
25 64 143
25 65 39
25 66 183
25 67 156
25 68 174
25 69 85
25 70 42
25 71 34
25 72 144
25 73 45
25 74 213
25 75 184
25 76 62
25 77 70
25 78 80
25 79 176
25 80 118
26 27 59
26 28 38
26 29 135
26 30 133
26 31 109
26 32 63
26 33 93
26 34 109
26 35 233
26 36 63
26 37 221
26 38 167
26 39 186
26 40 70
26 41 194
26 42 193
26 43 69
26 44 167
26 45 3
26 46 232
26 47 129
26 48 190
26 49 141
26 50 90
26 51 68
26 52 200
26 53 200
26 54 159
26 55 81
26 56 238
26 57 113
26 58 231
26 59 173
26 60 161
26 61 154
26 62 223
26 63 196
26 64 93
26 65 150
26 66 66
26 67 179
26 68 80
26 69 133
26 70 69
26 71 109
26 72 125
26 73 233
26 74 17
26 75 26
26 76 46
26 77 188
26 78 70
26 79 160
26 80 136
27 28 143
27 29 78
27 30 167
27 31 74
27 32 192
27 33 180
27 34 124
27 35 34
27 36 221
27 37 107
27 38 124
27 39 151
27 40 104
27 41 22
27 42 87
27 43 118
27 44 45
27 45 156
27 46 99
27 47 18
27 48 24
27 49 196
27 50 24
27 51 233
27 52 189
27 53 54
27 54 32
27 55 196
27 56 15
27 57 29
27 58 52
27 59 27
27 60 216
27 61 17
27 62 173
27 63 195
27 64 48
27 65 194
27 66 161
27 67 106
27 68 182
27 69 28
27 70 232
27 71 115
27 72 49
27 73 134
27 74 66
27 75 130
27 76 62
27 77 239
27 78 51
27 79 26
27 80 170
28 29 12
28 30 51
28 31 69
28 32 147
28 33 3
28 34 111
28 35 227
28 36 111
28 37 90
28 38 94
28 39 25
28 40 213
28 41 20
28 42 182
28 43 136
28 44 68
28 45 42
28 46 10
28 47 173
28 48 189
28 49 150
28 50 63
28 51 102
28 52 116
28 53 8
28 54 160
28 55 116
28 56 155
28 57 233
28 58 155
28 59 23
28 60 80
28 61 152
28 62 23
28 63 25
28 64 44
28 65 1
28 66 165
28 67 145
28 68 216
28 69 58
28 70 110
28 71 124
28 72 55
28 73 147
28 74 187
28 75 34
28 76 197
28 77 144
28 78 32
28 79 97
28 80 105
29 30 230
29 31 84
29 32 35
29 33 167
29 34 43
29 35 107
29 36 162
29 37 218
29 38 57
29 39 139
29 40 78
29 41 156
29 42 170
29 43 124
29 44 126
29 45 205
29 46 109
29 47 198
29 48 117
29 49 193
29 50 27
29 51 22
29 52 98
29 53 231
29 54 229
29 55 46
29 56 46
29 57 28
29 58 96
29 59 180
29 60 185
29 61 17
29 62 84
29 63 193
29 64 100
29 65 121
29 66 2
29 67 225
29 68 48
29 69 207
29 70 158
29 71 74
29 72 87
29 73 196
29 74 148
29 75 116
29 76 219
29 77 5
29 78 216
29 79 56
29 80 66
30 31 178
30 32 101
30 33 138
30 34 59
30 35 128
30 36 55
30 37 17
30 38 203
30 39 142
30 40 158
30 41 70
30 42 84
30 43 112
30 44 172
30 45 73
30 46 17
30 47 27
30 48 19
30 49 196
30 50 70
30 51 29
30 52 215
30 53 160
30 54 208
30 55 221
30 56 151
30 57 180
30 58 169
30 59 163
30 60 60
30 61 99
30 62 195
30 63 51
30 64 18
30 65 7
30 66 204
30 67 45
30 68 91
30 69 235
30 70 2
30 71 197
30 72 235
30 73 179
30 74 77
30 75 45
30 76 194
30 77 142
30 78 8
30 79 87
30 80 53
31 32 133
31 33 111
31 34 14
31 35 155
31 36 96
31 37 16
31 38 28
31 39 103
31 40 156
31 41 188
31 42 142
31 43 125
31 44 38
31 45 121
31 46 152
31 47 110
31 48 229
31 49 24
31 50 14
31 51 221
31 52 39
31 53 125
31 54 114
31 55 206
31 56 209
31 57 84
31 58 216
31 59 213
31 60 34
31 61 77
31 62 35
31 63 204
31 64 62
31 65 79
31 66 208
31 67 229
31 68 108
31 69 43
31 70 221
31 71 177
31 72 185
31 73 159
31 74 229
31 75 140
31 76 178
31 77 212
31 78 133
31 79 62
31 80 55
32 33 79
32 34 47
32 35 16
32 36 101
32 37 85
32 38 130
32 39 216
32 40 5
32 41 75
32 42 32
32 43 191
32 44 46
32 45 117
32 46 203
32 47 2
32 48 79
32 49 194
32 50 125
32 51 16
32 52 28
32 53 161
32 54 13
32 55 89
32 56 189
32 57 184
32 58 177
32 59 120
32 60 90
32 61 188
32 62 57
32 63 74
32 64 145
32 65 63
32 66 231
32 67 136
32 68 236
32 69 56
32 70 44
32 71 173
32 72 159
32 73 212
32 74 37
32 75 198
32 76 68
32 77 91
32 78 217
32 79 91
32 80 159
33 34 160
33 35 67
33 36 182
33 37 162
33 38 17
33 39 48
33 40 149
33 41 195
33 42 217
33 43 117
33 44 7
33 45 15
33 46 17
33 47 164
33 48 203
33 49 111
33 50 41
33 51 83
33 52 94
33 53 97
33 54 148
33 55 48
33 56 94
33 57 171
33 58 235
33 59 235
33 60 129
33 61 93
33 62 181
33 63 204
33 64 152
33 65 165
33 66 228
33 67 30
33 68 98
33 69 92
33 70 205
33 71 222
33 72 198
33 73 128
33 74 175
33 75 27
33 76 33
33 77 98
33 78 48
33 79 175
33 80 95
34 35 39
34 36 168
34 37 212
34 38 83
34 39 217
34 40 220
34 41 94
34 42 227
34 43 159
34 44 108
34 45 79
34 46 229
34 47 123
34 48 177
34 49 144
34 50 197
34 51 108
34 52 93
34 53 98
34 54 51
34 55 215
34 56 163
34 57 112
34 58 66
34 59 166
34 60 143
34 61 57
34 62 37
34 63 165
34 64 2
34 65 175
34 66 11
34 67 96
34 68 26
34 69 13
34 70 22
34 71 168
34 72 212
34 73 94
34 74 158
34 75 134
34 76 187
34 77 166
34 78 21
34 79 92
34 80 20
35 36 152
35 37 148
35 38 35
35 39 210
35 40 224
35 41 39
35 42 99
35 43 23
35 44 230
35 45 143
35 46 32
35 47 131
35 48 105
35 49 234
35 50 132
35 51 239
35 52 40
35 53 141
35 54 70
35 55 75
35 56 227
35 57 229
35 58 37
35 59 153
35 60 80
35 61 153
35 62 118
35 63 108
35 64 160
35 65 9
35 66 113
35 67 151
35 68 202
35 69 211
35 70 234
35 71 1
35 72 65
35 73 175
35 74 23
35 75 59
35 76 139
35 77 137
35 78 69
35 79 226
35 80 133
36 37 210
36 38 48
36 39 85
36 40 126
36 41 135
36 42 218
36 43 234
36 44 44
36 45 28
36 46 202
36 47 111
36 48 44
36 49 18
36 50 187
36 51 94
36 52 158
36 53 124
36 54 56
36 55 172
36 56 187
36 57 47
36 58 12
36 59 95
36 60 224
36 61 216
36 62 44
36 63 118
36 64 94
36 65 101
36 66 203
36 67 149
36 68 119
36 69 229
36 70 157
36 71 231
36 72 220
36 73 17
36 74 206
36 75 96
36 76 128
36 77 39
36 78 203
36 79 98
36 80 160
37 38 237
37 39 196
37 40 96
37 41 8
37 42 123
37 43 107
37 44 119
37 45 233
37 46 151
37 47 184
37 48 236
37 49 11
37 50 224
37 51 1
37 52 57
37 53 221
37 54 68
37 55 179
37 56 5
37 57 76
37 58 32
37 59 123
37 60 177
37 61 130
37 62 218
37 63 152
37 64 22
37 65 92
37 66 170
37 67 38
37 68 114
37 69 86
37 70 28
37 71 163
37 72 21
37 73 72
37 74 87
37 75 16
37 76 179
37 77 40
37 78 227
37 79 185
37 80 199
38 39 216
38 40 28
38 41 210
38 42 166
38 43 121
38 44 93
38 45 119
38 46 113
38 47 155
38 48 88
38 49 192
38 50 63
38 51 104
38 52 122
38 53 102
38 54 54
38 55 136
38 56 175
38 57 191
38 58 50
38 59 143
38 60 58
38 61 25
38 62 215
38 63 8
38 64 56
38 65 142
38 66 31
38 67 172
38 68 101
38 69 61
38 70 102
38 71 53
38 72 66
38 73 230
38 74 160
38 75 117
38 76 0
38 77 68
38 78 150
38 79 71
38 80 108
39 40 42
39 41 111
39 42 51
39 43 39
39 44 132
39 45 157
39 46 234
39 47 97
39 48 166
39 49 101
39 50 213
39 51 71
39 52 13
39 53 71
39 54 220
39 55 237
39 56 70
39 57 44
39 58 102
39 59 110
39 60 121
39 61 91
39 62 189
39 63 144
39 64 206
39 65 46
39 66 205
39 67 56
39 68 19
39 69 33
39 70 76
39 71 43
39 72 238
39 73 211
39 74 3
39 75 92
39 76 31
39 77 217
39 78 109
39 79 86
39 80 17
40 41 21
40 42 186
40 43 74
40 44 153
40 45 41
40 46 239
40 47 106
40 48 68
40 49 207
40 50 22
40 51 183
40 52 167
40 53 60
40 54 234
40 55 220
40 56 50
40 57 181
40 58 100
40 59 64
40 60 88
40 61 18
40 62 44
40 63 220
40 64 172
40 65 217
40 66 105
40 67 144
40 68 216
40 69 18
40 70 132
40 71 128
40 72 104
40 73 91
40 74 166
40 75 226
40 76 21
40 77 100
40 78 220
40 79 47
40 80 84
41 42 88
41 43 23
41 44 204
41 45 31
41 46 11
41 47 35
41 48 168
41 49 192
41 50 122
41 51 114
41 52 116
41 53 213
41 54 16
41 55 43
41 56 91
41 57 6
41 58 208
41 59 81
41 60 16
41 61 12
41 62 207
41 63 161
41 64 77
41 65 99
41 66 79
41 67 75
41 68 74
41 69 178
41 70 192
41 71 113
41 72 30
41 73 40
41 74 95
41 75 173
41 76 189
41 77 67
41 78 138
41 79 37
41 80 78
42 43 36
42 44 155
42 45 111
42 46 203
42 47 17
42 48 44
42 49 198
42 50 66
42 51 66
42 52 210
42 53 142
42 54 28
42 55 184
42 56 71
42 57 14
42 58 207
42 59 47
42 60 151
42 61 183
42 62 33
42 63 52
42 64 34
42 65 151
42 66 70
42 67 127
42 68 212
42 69 228
42 70 11
42 71 213
42 72 160
42 73 8
42 74 114
42 75 76
42 76 116
42 77 214
42 78 166
42 79 97
42 80 95
43 44 105
43 45 18
43 46 164
43 47 136
43 48 139
43 49 18
43 50 41
43 51 3
43 52 99
43 53 122
43 54 189
43 55 2
43 56 186
43 57 181
43 58 146
43 59 237
43 60 70
43 61 52
43 62 198
43 63 1
43 64 181
43 65 214
43 66 148
43 67 140
43 68 168
43 69 188
43 70 68
43 71 28
43 72 27
43 73 87
43 74 173
43 75 93
43 76 154
43 77 180
43 78 167
43 79 222
43 80 20
44 45 96
44 46 45
44 47 181
44 48 166
44 49 62
44 50 42
44 51 32
44 52 63
44 53 237
44 54 165
44 55 215
44 56 53
44 57 73
44 58 122
44 59 152
44 60 116
44 61 43
44 62 163
44 63 2
44 64 214
44 65 21
44 66 180
44 67 34
44 68 237
44 69 49
44 70 29
44 71 33
44 72 218
44 73 101
44 74 41
44 75 149
44 76 54
44 77 67
44 78 76
44 79 5
44 80 110
45 46 49
45 47 80
45 48 195
45 49 19
45 50 85
45 51 35
45 52 99
45 53 25
45 54 216
45 55 137
45 56 31
45 57 93
45 58 121
45 59 111
45 60 134
45 61 26
45 62 196
45 63 185
45 64 4
45 65 130
45 66 110
45 67 43
45 68 186
45 69 142
45 70 230
45 71 218
45 72 200
45 73 164
45 74 53
45 75 166
45 76 128
45 77 159
45 78 11
45 79 12
45 80 150
46 47 232
46 48 183
46 49 36
46 50 94
46 51 95
46 52 208
46 53 18
46 54 126
46 55 136
46 56 117
46 57 70
46 58 105
46 59 136
46 60 161
46 61 198
46 62 196
46 63 135
46 64 235
46 65 187
46 66 21
46 67 125
46 68 70
46 69 118
46 70 11
46 71 174
46 72 15
46 73 48
46 74 91
46 75 56
46 76 96
46 77 6
46 78 122
46 79 84
46 80 146
47 48 28
47 49 5
47 50 27
47 51 198
47 52 167
47 53 62
47 54 133
47 55 9
47 56 25
47 57 109
47 58 196
47 59 198
47 60 177
47 61 39
47 62 101
47 63 145
47 64 95
47 65 121
47 66 136
47 67 167
47 68 202
47 69 116
47 70 149
47 71 96
47 72 124
47 73 151
47 74 187
47 75 107
47 76 185
47 77 229
47 78 180
47 79 28
47 80 206
48 49 198
48 50 75
48 51 128
48 52 83
48 53 188
48 54 154
48 55 195
48 56 29
48 57 26
48 58 12
48 59 49
48 60 106
48 61 113
48 62 214
48 63 105
48 64 220
48 65 103
48 66 232
48 67 119
48 68 152
48 69 105
48 70 40
48 71 165
48 72 58
48 73 209
48 74 215
48 75 17
48 76 36
48 77 121
48 78 28
48 79 138
48 80 122
49 50 224
49 51 62
49 52 227
49 53 225
49 54 223
49 55 121
49 56 227
49 57 80
49 58 18
49 59 181
49 60 172
49 61 221
49 62 93
49 63 96
49 64 54
49 65 199
49 66 17
49 67 96
49 68 132
49 69 37
49 70 115
49 71 0
49 72 32
49 73 136
49 74 158
49 75 163
49 76 64
49 77 175
49 78 106
49 79 190
49 80 54
50 51 8
50 52 230
50 53 103
50 54 154
50 55 87
50 56 55
50 57 121
50 58 140
50 59 48
50 60 173
50 61 15
50 62 19
50 63 47
50 64 222
50 65 42
50 66 21
50 67 70
50 68 115
50 69 187
50 70 5
50 71 182
50 72 21
50 73 172
50 74 99
50 75 130
50 76 184
50 77 46
50 78 224
50 79 87
50 80 94
51 52 45
51 53 129
51 54 194
51 55 133
51 56 192
51 57 13
51 58 214
51 59 229
51 60 207
51 61 227
51 62 21
51 63 71
51 64 36
51 65 24
51 66 30
51 67 177
51 68 126
51 69 66
51 70 91
51 71 44
51 72 224
51 73 197
51 74 218
51 75 50
51 76 222
51 77 95
51 78 162
51 79 110
51 80 128
52 53 126
52 54 175
52 55 53
52 56 171
52 57 78
52 58 107
52 59 12
52 60 84
52 61 237
52 62 169
52 63 125
52 64 223
52 65 205
52 66 111
52 67 118
52 68 168
52 69 230
52 70 148
52 71 9
52 72 86
52 73 156
52 74 7
52 75 227
52 76 26
52 77 238
52 78 78
52 79 10
52 80 203
53 54 22
53 55 205
53 56 158
53 57 166
53 58 194
53 59 213
53 60 98
53 61 37
53 62 85
53 63 122
53 64 184
53 65 24
53 66 52
53 67 202
53 68 185
53 69 17
53 70 180
53 71 233
53 72 125
53 73 41
53 74 111
53 75 96
53 76 140
53 77 4
53 78 142
53 79 79
53 80 89
54 55 154
54 56 22
54 57 107
54 58 14
54 59 230
54 60 94
54 61 196
54 62 229
54 63 97
54 64 104
54 65 139
54 66 166
54 67 92
54 68 76
54 69 224
54 70 188
54 71 94
54 72 239
54 73 215
54 74 36
54 75 12
54 76 123
54 77 52
54 78 96
54 79 139
54 80 42
55 56 158
55 57 167
55 58 207
55 59 226
55 60 0
55 61 179
55 62 5
55 63 100
55 64 192
55 65 161
55 66 123
55 67 165
55 68 1
55 69 107
55 70 56
55 71 217
55 72 64
55 73 127
55 74 201
55 75 231
55 76 113
55 77 188
55 78 17
55 79 214
55 80 97
56 57 39
56 58 204
56 59 237
56 60 82
56 61 73
56 62 101
56 63 238
56 64 0
56 65 87
56 66 168
56 67 35
56 68 68
56 69 2
56 70 92
56 71 89
56 72 134
56 73 207
56 74 176
56 75 222
56 76 85
56 77 131
56 78 51
56 79 168
56 80 149
57 58 41
57 59 139
57 60 25
57 61 222
57 62 133
57 63 179
57 64 176
57 65 68
57 66 156
57 67 29
57 68 23
57 69 138
57 70 235
57 71 97
57 72 86
57 73 69
57 74 49
57 75 4
57 76 155
57 77 192
57 78 229
57 79 227
57 80 226
58 59 52
58 60 109
58 61 191
58 62 185
58 63 68
58 64 211
58 65 156
58 66 227
58 67 135
58 68 132
58 69 158
58 70 103
58 71 198
58 72 36
58 73 88
58 74 192
58 75 19
58 76 165
58 77 64
58 78 179
58 79 58
58 80 1
59 60 155
59 61 145
59 62 89
59 63 214
59 64 201
59 65 28
59 66 183
59 67 189
59 68 160
59 69 21
59 70 229
59 71 121
59 72 116
59 73 44
59 74 168
59 75 74
59 76 143
59 77 76
59 78 83
59 79 230
59 80 8
60 61 12
60 62 130
60 63 238
60 64 32
60 65 37
60 66 176
60 67 162
60 68 134
60 69 165
60 70 9
60 71 141
60 72 238
60 73 205
60 74 190
60 75 101
60 76 66
60 77 151
60 78 144
60 79 88
60 80 1
61 62 179
61 63 134
61 64 207
61 65 44
61 66 36
61 67 177
61 68 153
61 69 76
61 70 79
61 71 85
61 72 109
61 73 113
61 74 198
61 75 20
61 76 43
61 77 237
61 78 107
61 79 175
61 80 153
62 63 139
62 64 176
62 65 221
62 66 176
62 67 43
62 68 168
62 69 85
62 70 171
62 71 162
62 72 126
62 73 211
62 74 29
62 75 8
62 76 196
62 77 186
62 78 237
62 79 130
62 80 25
63 64 200
63 65 77
63 66 189
63 67 84
63 68 136
63 69 184
63 70 190
63 71 81
63 72 207
63 73 153
63 74 28
63 75 114
63 76 25
63 77 94
63 78 86
63 79 211
63 80 147
64 65 105
64 66 122
64 67 60
64 68 150
64 69 163
64 70 207
64 71 206
64 72 191
64 73 41
64 74 205
64 75 39
64 76 100
64 77 217
64 78 111
64 79 72
64 80 203
65 66 23
65 67 151
65 68 134
65 69 165
65 70 228
65 71 69
65 72 42
65 73 48
65 74 100
65 75 105
65 76 148
65 77 137
65 78 94
65 79 169
65 80 198
66 67 22
66 68 69
66 69 177
66 70 122
66 71 27
66 72 169
66 73 110
66 74 157
66 75 37
66 76 8
66 77 28
66 78 171
66 79 193
66 80 42
67 68 69
67 69 148
67 70 106
67 71 32
67 72 189
67 73 140
67 74 13
67 75 49
67 76 90
67 77 20
67 78 80
67 79 192
67 80 120
68 69 228
68 70 226
68 71 210
68 72 18
68 73 151
68 74 141
68 75 191
68 76 40
68 77 166
68 78 99
68 79 142
68 80 227
69 70 223
69 71 235
69 72 203
69 73 43
69 74 208
69 75 204
69 76 50
69 77 7
69 78 15
69 79 174
69 80 44
70 71 98
70 72 77
70 73 18
70 74 92
70 75 136
70 76 54
70 77 118
70 78 76
70 79 109
70 80 116
71 72 136
71 73 147
71 74 83
71 75 85
71 76 82
71 77 185
71 78 239
71 79 80
71 80 140
72 73 107
72 74 9
72 75 103
72 76 36
72 77 39
72 78 137
72 79 127
72 80 160
73 74 150
73 75 196
73 76 77
73 77 56
73 78 228
73 79 64
73 80 65
74 75 228
74 76 134
74 77 5
74 78 136
74 79 157
74 80 20
75 76 105
75 77 47
75 78 25
75 79 30
75 80 33
76 77 144
76 78 211
76 79 81
76 80 53
77 78 163
77 79 184
77 80 140
78 79 0
78 80 120
79 80 54
